
Gurobi 11.0.1 (win64) logging started Thu Mar 14 02:32:48 2024

Set parameter LogFile to value "res/logfile/brazil3log.txt"

Gurobi Optimizer version 11.0.1 build v11.0.1rc0 (win64 - Windows 11.0 (22621.2))

CPU model: AMD Ryzen Threadripper PRO 5975WX 32-Cores, instruction set [SSE2|AVX|AVX2]
Thread count: 32 physical cores, 64 logical processors, using up to 10 threads

Optimize a model with 44182 rows, 23968 columns and 233607 nonzeros
Model fingerprint: 0xac622b8c
Variable types: 0 continuous, 23968 integer (23874 binary)
Coefficient statistics:
  Matrix range     [1e+00, 9e+00]
  Objective range  [1e+00, 1e+00]
  Bounds range     [1e+00, 1e+00]
  RHS range        [1e+00, 1e+03]
Presolve removed 41755 rows and 17434 columns
Presolve time: 0.12s
Presolved: 2427 rows, 6534 columns, 30291 nonzeros
Crushed 833 out of 28597 user cuts to presolved model
Variable types: 0 continuous, 6534 integer (6529 binary)

Root relaxation: objective 2.000000e+00, 7130 iterations, 0.92 seconds (1.61 work units)
Total elapsed time = 5.63s (DegenMoves)

    Nodes    |    Current Node    |     Objective Bounds      |     Work
 Expl Unexpl |  Obj  Depth IntInf | Incumbent    BestBd   Gap | It/Node Time

     0     0    2.00000    0  628          -    2.00000      -     -    6s
     0     0    2.16667    0  888          -    2.16667      -     -    7s
     0     0    8.62821    0  861          -    8.62821      -     -    8s
     0     0    8.62821    0  857          -    8.62821      -     -    8s
     0     0    9.79167    0  912          -    9.79167      -     -    8s
     0     0   11.16667    0  889          -   11.16667      -     -    9s
     0     0   11.16667    0  909          -   11.16667      -     -    9s
     0     0   11.62500    0  898          -   11.62500      -     -    9s
     0     0   13.62500    0  904          -   13.62500      -     -    9s
     0     0   15.12500    0  613          -   15.12500      -     -   12s
     0     0   15.12500    0  713          -   15.12500      -     -   13s
     0     0   15.62500    0  837          -   15.62500      -     -   13s
     0     0   20.00000    0  600          -   20.00000      -     -   16s
     0     0   20.00000    0  655          -   20.00000      -     -   16s
     0     0   20.00000    0  807          -   20.00000      -     -   17s
H    0     0                      65.0000000   20.00000  69.2%     -   17s
     0     0   20.00000    0  822   65.00000   20.00000  69.2%     -   17s
     0     0   20.00000    0  512   65.00000   20.00000  69.2%     -   19s
     0     0   20.00000    0  693   65.00000   20.00000  69.2%     -   19s
     0     0   20.00000    0  540   65.00000   20.00000  69.2%     -   22s
     0     0   20.00000    0  596   65.00000   20.00000  69.2%     -   22s
     0     0   20.00000    0  477   65.00000   20.00000  69.2%     -   25s
     0     0   20.00000    0  477   65.00000   20.00000  69.2%     -   26s
     0     2   20.00000    0  477   65.00000   20.00000  69.2%     -   28s
    25    36   21.00000    5  881   65.00000   21.00000  67.7%  1272   30s
   157   168   21.00000   15  803   65.00000   21.00000  67.7%   643   54s
   167   381   21.00000   15  815   65.00000   21.00000  67.7%   639   57s
   380   939   21.00000   28  719   65.00000   21.00000  67.7%   516   62s
   942  1375 infeasible   55        65.00000   21.00000  67.7%   518   81s
H 1131  1375                      56.0000000   21.00000  62.5%   483   81s
  1402  2167   25.32765   56  656   56.00000   21.00000  62.5%   481   88s
* 1798  2022             176      38.0000000   21.00000  44.7%   489   88s
  2298  2354   21.75439   31  665   38.00000   21.00000  44.7%   475   94s
* 2422  1720              61      24.0000000   21.00000  12.5%   489   94s
  2913  1176   21.35795   37  477   24.00000   21.00000  12.5%   514   96s
  2915  1177   21.00000   21  519   24.00000   21.00000  12.5%   514  100s
  2916  1178   22.80000   27  530   24.00000   21.00000  12.5%   514  106s
  2919  1180   22.25000   15  449   24.00000   22.25000  7.29%   513  110s
  2927  1187   22.25000   31  538   24.00000   22.25000  7.29%   551  115s

Cutting planes:
  Gomory: 14
  Cover: 4
  Clique: 43
  Flow cover: 1
  Zero half: 26
  RLT: 2

Explored 2929 nodes (1846407 simplex iterations) in 116.99 seconds (297.11 work units)
Thread count was 10 (of 64 available processors)

Solution count 4: 24 38 56 65 

Optimal solution found (tolerance 1.00e-04)
Best objective 2.400000000000e+01, best bound 2.400000000000e+01, gap 0.0000%

User-callback calls 10680, time in user-callback 0.00 sec
